c Standarized MaxSat Instance
c{
c "sha1sum": "2d9e7aee12ff7ed7a4bd1d12240d56117b1ad98c",
c "nvars": 40,
c "ncls": 1026,
c "nhards": 0,
c "nhard_len_stats":
c    { "min": 0, "max": 0, "ave": 0.00,
c      "stddev": 0.00 },
c "nsofts": 1026,
c "nsoft_len_stats":
c    { "min": 2, "max": 2, "ave": 2.00,
c      "stddev": 0.00 },
c "nsoft_wts": 10,
c "soft_wt_stats":
c    { "min": 1, "max": 10, "ave": 5.59,
c      "stddev": 2.83 }
c}
c------------------------------------------------------------
c FILE:  brock800_2.b
c
c Graph Generator
c
c By: Mark Brockington (brock@cs.ualberta.ca)
c and Joe Culberson (joe@cs.ualberta.ca)
c
c Graph Size:800, Clique Size: 24
c Seed:1, Edge Density:  0.65000
c Depth 2 Hiding
c
c Clique Elements are:
c 445 258 155 383 414 496 271 694 649 348 
c 504 792 323 695 12 109 160 84 214 580 
c 460 55 417 130 
c
c Estimated Size of Uncompressed File:   2.0MB
c
p wcnf 40 1026 5739
9 1 4 0
9 -1 -4 0
4 1 5 0
4 -1 -5 0
8 1 7 0
8 -1 -7 0
8 1 8 0
8 -1 -8 0
10 1 12 0
10 -1 -12 0
2 1 15 0
2 -1 -15 0
4 1 18 0
4 -1 -18 0
8 1 21 0
8 -1 -21 0
3 1 22 0
3 -1 -22 0
6 1 23 0
6 -1 -23 0
5 1 25 0
5 -1 -25 0
7 1 26 0
7 -1 -26 0
4 1 27 0
4 -1 -27 0
6 1 28 0
6 -1 -28 0
10 1 30 0
10 -1 -30 0
10 1 31 0
10 -1 -31 0
7 1 33 0
7 -1 -33 0
8 1 38 0
8 -1 -38 0
2 1 39 0
2 -1 -39 0
7 1 40 0
7 -1 -40 0
1 2 4 0
1 -2 -4 0
3 2 5 0
3 -2 -5 0
2 2 6 0
2 -2 -6 0
9 2 8 0
9 -2 -8 0
2 2 9 0
2 -2 -9 0
5 2 12 0
5 -2 -12 0
2 2 13 0
2 -2 -13 0
2 2 14 0
2 -2 -14 0
10 2 15 0
10 -2 -15 0
3 2 16 0
3 -2 -16 0
6 2 17 0
6 -2 -17 0
9 2 18 0
9 -2 -18 0
7 2 19 0
7 -2 -19 0
3 2 20 0
3 -2 -20 0
7 2 21 0
7 -2 -21 0
6 2 22 0
6 -2 -22 0
5 2 23 0
5 -2 -23 0
10 2 24 0
10 -2 -24 0
3 2 25 0
3 -2 -25 0
8 2 26 0
8 -2 -26 0
6 2 29 0
6 -2 -29 0
8 2 30 0
8 -2 -30 0
5 2 31 0
5 -2 -31 0
9 2 32 0
9 -2 -32 0
3 2 33 0
3 -2 -33 0
4 2 34 0
4 -2 -34 0
9 2 37 0
9 -2 -37 0
10 2 38 0
10 -2 -38 0
1 2 39 0
1 -2 -39 0
10 2 40 0
10 -2 -40 0
6 3 5 0
6 -3 -5 0
1 3 7 0
1 -3 -7 0
2 3 10 0
2 -3 -10 0
7 3 11 0
7 -3 -11 0
9 3 12 0
9 -3 -12 0
4 3 13 0
4 -3 -13 0
1 3 14 0
1 -3 -14 0
1 3 15 0
1 -3 -15 0
5 3 16 0
5 -3 -16 0
1 3 17 0
1 -3 -17 0
3 3 20 0
3 -3 -20 0
10 3 21 0
10 -3 -21 0
10 3 22 0
10 -3 -22 0
9 3 24 0
9 -3 -24 0
3 3 25 0
3 -3 -25 0
6 3 26 0
6 -3 -26 0
4 3 27 0
4 -3 -27 0
8 3 29 0
8 -3 -29 0
6 3 30 0
6 -3 -30 0
7 3 31 0
7 -3 -31 0
6 3 32 0
6 -3 -32 0
1 3 33 0
1 -3 -33 0
5 3 34 0
5 -3 -34 0
10 3 35 0
10 -3 -35 0
10 3 39 0
10 -3 -39 0
8 4 5 0
8 -4 -5 0
3 4 6 0
3 -4 -6 0
8 4 7 0
8 -4 -7 0
7 4 8 0
7 -4 -8 0
4 4 9 0
4 -4 -9 0
7 4 10 0
7 -4 -10 0
2 4 12 0
2 -4 -12 0
5 4 13 0
5 -4 -13 0
9 4 16 0
9 -4 -16 0
9 4 18 0
9 -4 -18 0
4 4 19 0
4 -4 -19 0
3 4 20 0
3 -4 -20 0
9 4 22 0
9 -4 -22 0
4 4 23 0
4 -4 -23 0
7 4 24 0
7 -4 -24 0
10 4 25 0
10 -4 -25 0
6 4 28 0
6 -4 -28 0
7 4 29 0
7 -4 -29 0
9 4 30 0
9 -4 -30 0
5 4 31 0
5 -4 -31 0
10 4 33 0
10 -4 -33 0
4 4 35 0
4 -4 -35 0
9 4 36 0
9 -4 -36 0
7 4 37 0
7 -4 -37 0
10 4 40 0
10 -4 -40 0
5 5 6 0
5 -5 -6 0
3 5 7 0
3 -5 -7 0
10 5 8 0
10 -5 -8 0
10 5 9 0
10 -5 -9 0
2 5 10 0
2 -5 -10 0
9 5 11 0
9 -5 -11 0
7 5 14 0
7 -5 -14 0
5 5 16 0
5 -5 -16 0
7 5 17 0
7 -5 -17 0
3 5 18 0
3 -5 -18 0
8 5 21 0
8 -5 -21 0
4 5 22 0
4 -5 -22 0
5 5 23 0
5 -5 -23 0
3 5 25 0
3 -5 -25 0
2 5 26 0
2 -5 -26 0
3 5 27 0
3 -5 -27 0
6 5 28 0
6 -5 -28 0
5 5 29 0
5 -5 -29 0
2 5 31 0
2 -5 -31 0
10 5 33 0
10 -5 -33 0
2 5 36 0
2 -5 -36 0
2 5 38 0
2 -5 -38 0
5 5 39 0
5 -5 -39 0
8 6 7 0
8 -6 -7 0
10 6 8 0
10 -6 -8 0
10 6 9 0
10 -6 -9 0
7 6 10 0
7 -6 -10 0
4 6 12 0
4 -6 -12 0
8 6 13 0
8 -6 -13 0
4 6 14 0
4 -6 -14 0
3 6 17 0
3 -6 -17 0
3 6 20 0
3 -6 -20 0
6 6 22 0
6 -6 -22 0
3 6 23 0
3 -6 -23 0
2 6 24 0
2 -6 -24 0
8 6 25 0
8 -6 -25 0
2 6 26 0
2 -6 -26 0
8 6 27 0
8 -6 -27 0
2 6 31 0
2 -6 -31 0
8 6 33 0
8 -6 -33 0
1 6 35 0
1 -6 -35 0
10 6 36 0
10 -6 -36 0
1 6 37 0
1 -6 -37 0
6 6 38 0
6 -6 -38 0
2 6 39 0
2 -6 -39 0
3 6 40 0
3 -6 -40 0
8 7 8 0
8 -7 -8 0
8 7 10 0
8 -7 -10 0
7 7 11 0
7 -7 -11 0
10 7 13 0
10 -7 -13 0
7 7 14 0
7 -7 -14 0
8 7 16 0
8 -7 -16 0
1 7 17 0
1 -7 -17 0
2 7 19 0
2 -7 -19 0
6 7 23 0
6 -7 -23 0
1 7 25 0
1 -7 -25 0
1 7 28 0
1 -7 -28 0
3 7 29 0
3 -7 -29 0
5 7 30 0
5 -7 -30 0
9 7 31 0
9 -7 -31 0
6 7 32 0
6 -7 -32 0
8 7 34 0
8 -7 -34 0
1 7 36 0
1 -7 -36 0
2 7 37 0
2 -7 -37 0
10 7 38 0
10 -7 -38 0
3 7 39 0
3 -7 -39 0
9 8 10 0
9 -8 -10 0
2 8 11 0
2 -8 -11 0
10 8 12 0
10 -8 -12 0
1 8 13 0
1 -8 -13 0
9 8 14 0
9 -8 -14 0
1 8 19 0
1 -8 -19 0
1 8 23 0
1 -8 -23 0
10 8 25 0
10 -8 -25 0
6 8 26 0
6 -8 -26 0
2 8 27 0
2 -8 -27 0
2 8 28 0
2 -8 -28 0
4 8 29 0
4 -8 -29 0
10 8 30 0
10 -8 -30 0
9 8 31 0
9 -8 -31 0
4 8 32 0
4 -8 -32 0
6 8 34 0
6 -8 -34 0
6 8 35 0
6 -8 -35 0
5 8 36 0
5 -8 -36 0
7 8 40 0
7 -8 -40 0
1 9 13 0
1 -9 -13 0
6 9 14 0
6 -9 -14 0
8 9 15 0
8 -9 -15 0
4 9 16 0
4 -9 -16 0
10 9 18 0
10 -9 -18 0
6 9 19 0
6 -9 -19 0
9 9 21 0
9 -9 -21 0
8 9 22 0
8 -9 -22 0
7 9 24 0
7 -9 -24 0
1 9 25 0
1 -9 -25 0
8 9 26 0
8 -9 -26 0
9 9 29 0
9 -9 -29 0
10 9 30 0
10 -9 -30 0
9 9 33 0
9 -9 -33 0
9 9 35 0
9 -9 -35 0
10 9 36 0
10 -9 -36 0
8 9 37 0
8 -9 -37 0
10 9 38 0
10 -9 -38 0
10 9 39 0
10 -9 -39 0
7 9 40 0
7 -9 -40 0
5 10 11 0
5 -10 -11 0
2 10 12 0
2 -10 -12 0
9 10 13 0
9 -10 -13 0
9 10 14 0
9 -10 -14 0
1 10 15 0
1 -10 -15 0
7 10 16 0
7 -10 -16 0
3 10 17 0
3 -10 -17 0
7 10 18 0
7 -10 -18 0
3 10 22 0
3 -10 -22 0
8 10 23 0
8 -10 -23 0
4 10 24 0
4 -10 -24 0
4 10 25 0
4 -10 -25 0
3 10 26 0
3 -10 -26 0
1 10 27 0
1 -10 -27 0
7 10 29 0
7 -10 -29 0
3 10 31 0
3 -10 -31 0
7 10 33 0
7 -10 -33 0
6 10 34 0
6 -10 -34 0
10 10 35 0
10 -10 -35 0
3 10 37 0
3 -10 -37 0
6 10 38 0
6 -10 -38 0
8 10 39 0
8 -10 -39 0
2 11 12 0
2 -11 -12 0
5 11 14 0
5 -11 -14 0
6 11 15 0
6 -11 -15 0
10 11 17 0
10 -11 -17 0
5 11 21 0
5 -11 -21 0
4 11 22 0
4 -11 -22 0
9 11 23 0
9 -11 -23 0
5 11 24 0
5 -11 -24 0
1 11 25 0
1 -11 -25 0
4 11 26 0
4 -11 -26 0
6 11 27 0
6 -11 -27 0
9 11 30 0
9 -11 -30 0
3 11 32 0
3 -11 -32 0
7 11 33 0
7 -11 -33 0
5 11 34 0
5 -11 -34 0
5 11 35 0
5 -11 -35 0
4 11 37 0
4 -11 -37 0
8 11 39 0
8 -11 -39 0
2 11 40 0
2 -11 -40 0
7 12 13 0
7 -12 -13 0
1 12 14 0
1 -12 -14 0
5 12 17 0
5 -12 -17 0
7 12 18 0
7 -12 -18 0
7 12 19 0
7 -12 -19 0
7 12 20 0
7 -12 -20 0
4 12 21 0
4 -12 -21 0
2 12 22 0
2 -12 -22 0
7 12 23 0
7 -12 -23 0
7 12 24 0
7 -12 -24 0
8 12 26 0
8 -12 -26 0
4 12 27 0
4 -12 -27 0
8 12 28 0
8 -12 -28 0
3 12 29 0
3 -12 -29 0
10 12 30 0
10 -12 -30 0
7 12 32 0
7 -12 -32 0
7 12 33 0
7 -12 -33 0
3 12 35 0
3 -12 -35 0
6 12 37 0
6 -12 -37 0
1 12 38 0
1 -12 -38 0
3 12 40 0
3 -12 -40 0
9 13 14 0
9 -13 -14 0
7 13 15 0
7 -13 -15 0
1 13 16 0
1 -13 -16 0
2 13 17 0
2 -13 -17 0
4 13 18 0
4 -13 -18 0
6 13 20 0
6 -13 -20 0
6 13 21 0
6 -13 -21 0
7 13 22 0
7 -13 -22 0
3 13 23 0
3 -13 -23 0
8 13 24 0
8 -13 -24 0
3 13 25 0
3 -13 -25 0
4 13 26 0
4 -13 -26 0
2 13 27 0
2 -13 -27 0
10 13 29 0
10 -13 -29 0
1 13 30 0
1 -13 -30 0
9 13 31 0
9 -13 -31 0
4 13 33 0
4 -13 -33 0
2 13 34 0
2 -13 -34 0
5 13 35 0
5 -13 -35 0
10 13 37 0
10 -13 -37 0
10 13 40 0
10 -13 -40 0
8 14 15 0
8 -14 -15 0
7 14 16 0
7 -14 -16 0
2 14 20 0
2 -14 -20 0
7 14 23 0
7 -14 -23 0
4 14 24 0
4 -14 -24 0
8 14 26 0
8 -14 -26 0
10 14 29 0
10 -14 -29 0
10 14 30 0
10 -14 -30 0
9 14 31 0
9 -14 -31 0
3 14 32 0
3 -14 -32 0
8 14 34 0
8 -14 -34 0
6 14 37 0
6 -14 -37 0
3 14 38 0
3 -14 -38 0
10 14 39 0
10 -14 -39 0
10 14 40 0
10 -14 -40 0
9 15 17 0
9 -15 -17 0
5 15 18 0
5 -15 -18 0
6 15 19 0
6 -15 -19 0
2 15 21 0
2 -15 -21 0
3 15 22 0
3 -15 -22 0
9 15 23 0
9 -15 -23 0
5 15 24 0
5 -15 -24 0
5 15 27 0
5 -15 -27 0
9 15 28 0
9 -15 -28 0
5 15 29 0
5 -15 -29 0
3 15 32 0
3 -15 -32 0
2 15 33 0
2 -15 -33 0
7 15 36 0
7 -15 -36 0
8 15 39 0
8 -15 -39 0
2 15 40 0
2 -15 -40 0
7 16 18 0
7 -16 -18 0
5 16 19 0
5 -16 -19 0
9 16 20 0
9 -16 -20 0
8 16 21 0
8 -16 -21 0
2 16 23 0
2 -16 -23 0
3 16 25 0
3 -16 -25 0
5 16 26 0
5 -16 -26 0
2 16 27 0
2 -16 -27 0
2 16 28 0
2 -16 -28 0
4 16 29 0
4 -16 -29 0
4 16 30 0
4 -16 -30 0
10 16 31 0
10 -16 -31 0
10 16 32 0
10 -16 -32 0
7 16 33 0
7 -16 -33 0
9 16 34 0
9 -16 -34 0
9 17 18 0
9 -17 -18 0
5 17 19 0
5 -17 -19 0
4 17 21 0
4 -17 -21 0
4 17 22 0
4 -17 -22 0
7 17 24 0
7 -17 -24 0
7 17 26 0
7 -17 -26 0
3 17 27 0
3 -17 -27 0
2 17 28 0
2 -17 -28 0
1 17 29 0
1 -17 -29 0
2 17 31 0
2 -17 -31 0
7 17 32 0
7 -17 -32 0
4 17 33 0
4 -17 -33 0
3 17 34 0
3 -17 -34 0
4 17 36 0
4 -17 -36 0
1 17 37 0
1 -17 -37 0
5 17 38 0
5 -17 -38 0
10 17 39 0
10 -17 -39 0
6 17 40 0
6 -17 -40 0
3 18 20 0
3 -18 -20 0
7 18 22 0
7 -18 -22 0
8 18 24 0
8 -18 -24 0
5 18 25 0
5 -18 -25 0
2 18 28 0
2 -18 -28 0
9 18 29 0
9 -18 -29 0
7 18 31 0
7 -18 -31 0
6 18 32 0
6 -18 -32 0
3 18 34 0
3 -18 -34 0
6 18 35 0
6 -18 -35 0
5 18 36 0
5 -18 -36 0
9 18 38 0
9 -18 -38 0
4 19 23 0
4 -19 -23 0
3 19 24 0
3 -19 -24 0
4 19 25 0
4 -19 -25 0
8 19 26 0
8 -19 -26 0
7 19 29 0
7 -19 -29 0
10 19 30 0
10 -19 -30 0
4 19 31 0
4 -19 -31 0
9 19 32 0
9 -19 -32 0
2 19 33 0
2 -19 -33 0
5 19 34 0
5 -19 -34 0
1 19 37 0
1 -19 -37 0
8 19 38 0
8 -19 -38 0
8 19 39 0
8 -19 -39 0
3 19 40 0
3 -19 -40 0
2 20 21 0
2 -20 -21 0
9 20 22 0
9 -20 -22 0
8 20 23 0
8 -20 -23 0
1 20 25 0
1 -20 -25 0
5 20 28 0
5 -20 -28 0
10 20 29 0
10 -20 -29 0
8 20 30 0
8 -20 -30 0
3 20 31 0
3 -20 -31 0
5 20 32 0
5 -20 -32 0
9 20 34 0
9 -20 -34 0
1 20 35 0
1 -20 -35 0
1 20 37 0
1 -20 -37 0
4 20 38 0
4 -20 -38 0
4 20 39 0
4 -20 -39 0
7 20 40 0
7 -20 -40 0
9 21 22 0
9 -21 -22 0
2 21 23 0
2 -21 -23 0
1 21 24 0
1 -21 -24 0
1 21 30 0
1 -21 -30 0
5 21 31 0
5 -21 -31 0
8 21 32 0
8 -21 -32 0
7 21 34 0
7 -21 -34 0
5 21 36 0
5 -21 -36 0
2 21 37 0
2 -21 -37 0
6 21 39 0
6 -21 -39 0
6 21 40 0
6 -21 -40 0
6 22 23 0
6 -22 -23 0
6 22 25 0
6 -22 -25 0
4 22 26 0
4 -22 -26 0
4 22 27 0
4 -22 -27 0
9 22 28 0
9 -22 -28 0
5 22 30 0
5 -22 -30 0
2 22 31 0
2 -22 -31 0
7 22 33 0
7 -22 -33 0
6 22 34 0
6 -22 -34 0
7 22 37 0
7 -22 -37 0
6 22 38 0
6 -22 -38 0
3 22 40 0
3 -22 -40 0
9 23 25 0
9 -23 -25 0
1 23 27 0
1 -23 -27 0
1 23 29 0
1 -23 -29 0
10 23 34 0
10 -23 -34 0
2 23 35 0
2 -23 -35 0
5 23 36 0
5 -23 -36 0
3 23 37 0
3 -23 -37 0
9 23 38 0
9 -23 -38 0
3 24 27 0
3 -24 -27 0
4 24 30 0
4 -24 -30 0
9 24 31 0
9 -24 -31 0
4 24 33 0
4 -24 -33 0
9 24 34 0
9 -24 -34 0
7 24 35 0
7 -24 -35 0
1 24 37 0
1 -24 -37 0
3 24 39 0
3 -24 -39 0
8 25 26 0
8 -25 -26 0
7 25 27 0
7 -25 -27 0
9 25 28 0
9 -25 -28 0
4 25 29 0
4 -25 -29 0
3 25 31 0
3 -25 -31 0
2 25 35 0
2 -25 -35 0
7 25 36 0
7 -25 -36 0
2 25 37 0
2 -25 -37 0
7 25 39 0
7 -25 -39 0
8 25 40 0
8 -25 -40 0
8 26 27 0
8 -26 -27 0
3 26 29 0
3 -26 -29 0
5 26 30 0
5 -26 -30 0
4 26 31 0
4 -26 -31 0
5 26 32 0
5 -26 -32 0
3 26 33 0
3 -26 -33 0
4 26 35 0
4 -26 -35 0
6 26 36 0
6 -26 -36 0
2 26 39 0
2 -26 -39 0
6 26 40 0
6 -26 -40 0
1 27 28 0
1 -27 -28 0
4 27 32 0
4 -27 -32 0
4 27 33 0
4 -27 -33 0
4 27 34 0
4 -27 -34 0
8 27 35 0
8 -27 -35 0
3 27 36 0
3 -27 -36 0
7 27 37 0
7 -27 -37 0
6 27 38 0
6 -27 -38 0
10 27 40 0
10 -27 -40 0
7 28 29 0
7 -28 -29 0
9 28 30 0
9 -28 -30 0
7 28 32 0
7 -28 -32 0
4 28 33 0
4 -28 -33 0
7 28 34 0
7 -28 -34 0
1 28 35 0
1 -28 -35 0
6 28 37 0
6 -28 -37 0
9 28 38 0
9 -28 -38 0
7 28 39 0
7 -28 -39 0
7 28 40 0
7 -28 -40 0
6 29 31 0
6 -29 -31 0
5 29 32 0
5 -29 -32 0
4 29 34 0
4 -29 -34 0
8 29 38 0
8 -29 -38 0
9 29 39 0
9 -29 -39 0
7 29 40 0
7 -29 -40 0
2 30 31 0
2 -30 -31 0
1 30 32 0
1 -30 -32 0
1 30 33 0
1 -30 -33 0
7 30 35 0
7 -30 -35 0
2 30 36 0
2 -30 -36 0
7 30 38 0
7 -30 -38 0
8 30 39 0
8 -30 -39 0
6 30 40 0
6 -30 -40 0
1 31 32 0
1 -31 -32 0
1 31 34 0
1 -31 -34 0
4 31 36 0
4 -31 -36 0
3 31 37 0
3 -31 -37 0
7 31 38 0
7 -31 -38 0
9 31 39 0
9 -31 -39 0
2 31 40 0
2 -31 -40 0
4 32 33 0
4 -32 -33 0
7 32 35 0
7 -32 -35 0
9 32 37 0
9 -32 -37 0
7 32 38 0
7 -32 -38 0
4 33 34 0
4 -33 -34 0
9 33 36 0
9 -33 -36 0
2 33 38 0
2 -33 -38 0
2 33 39 0
2 -33 -39 0
6 33 40 0
6 -33 -40 0
9 34 35 0
9 -34 -35 0
7 34 36 0
7 -34 -36 0
10 34 38 0
10 -34 -38 0
2 34 40 0
2 -34 -40 0
4 35 37 0
4 -35 -37 0
8 35 40 0
8 -35 -40 0
9 36 37 0
9 -36 -37 0
6 36 38 0
6 -36 -38 0
8 36 40 0
8 -36 -40 0
10 37 38 0
10 -37 -38 0
3 37 39 0
3 -37 -39 0
10 37 40 0
10 -37 -40 0
6 38 39 0
6 -38 -39 0
